c FILE /home/rafael/Documents/HappySet/MIHS/inputs/happygen/output/graph_scale_free_k3_p0.2_v100_20241127_083810.txt
c SOURCE This is a scale-free graph formed for the happy graph colouring problem.
c DESCRIPTION It was generated using the problem generator of Rhyd Lewis
c
c GRAPH STATS
c Seed                             = 814734020
c Number of Nodes                  = 100
c Number of colours k              = 3
c Number of pre-assignments        = 20
c Number of links per new node     = 5
c Density                          = 0.0979798
c 
c The degrees of nodes 1 to 100, respectively, are as follows 
c [43, 35, 33, 28, 26, 24, 24, 23, 21, 18, 18, 18, 17, 16, 15, 15, 15, 14, 14, 13, 12, 11, 11, 11, 11, 11, 
c  10, 10, 10, 10, 9, 9, 9, 9, 8, 8, 8, 8, 8, 8, 8, 8, 7, 7, 7, 7, 7, 7, 7, 7, 7, 
c  7, 7, 7, 7, 7, 7, 6, 6, 6, 6, 6, 6, 6, 6, 6, 6, 6, 6, 6, 5, 5, 5, 5, 5, 5, 
c  5, 5, 5, 5, 5, 5, 5, 5, 5, 5, 5, 5, 5, 5, 5, 5, 5, 5, 5, 5, 5, 5, 5, 5] 
c  
p edge 100 485 3
e 1 2
e 1 3
e 1 4
e 1 5
e 1 6
e 1 7
e 1 8
e 1 9
e 1 10
e 1 11
e 1 12
e 1 14
e 1 15
e 1 16
e 1 18
e 1 22
e 1 23
e 1 24
e 1 28
e 1 29
e 1 33
e 1 40
e 1 42
e 1 43
e 1 47
e 1 49
e 1 53
e 1 54
e 1 55
e 1 56
e 1 60
e 1 62
e 1 71
e 1 72
e 1 73
e 1 74
e 1 75
e 1 76
e 1 84
e 1 92
e 1 94
e 1 97
e 1 98
e 2 3
e 2 4
e 2 5
e 2 6
e 2 7
e 2 9
e 2 12
e 2 18
e 2 20
e 2 24
e 2 26
e 2 29
e 2 35
e 2 37
e 2 44
e 2 49
e 2 50
e 2 53
e 2 56
e 2 58
e 2 61
e 2 62
e 2 71
e 2 72
e 2 73
e 2 74
e 2 80
e 2 83
e 2 84
e 2 86
e 2 88
e 2 89
e 2 90
e 2 96
e 3 4
e 3 5
e 3 6
e 3 7
e 3 8
e 3 9
e 3 10
e 3 12
e 3 15
e 3 16
e 3 19
e 3 26
e 3 36
e 3 37
e 3 42
e 3 45
e 3 53
e 3 56
e 3 57
e 3 61
e 3 62
e 3 65
e 3 73
e 3 74
e 3 77
e 3 85
e 3 87
e 3 91
e 3 92
e 3 94
e 3 100
e 4 5
e 4 6
e 4 8
e 4 10
e 4 12
e 4 13
e 4 14
e 4 15
e 4 20
e 4 22
e 4 27
e 4 28
e 4 30
e 4 31
e 4 41
e 4 43
e 4 45
e 4 51
e 4 54
e 4 67
e 4 71
e 4 75
e 4 79
e 4 80
e 4 96
e 5 6
e 5 7
e 5 8
e 5 9
e 5 11
e 5 19
e 5 20
e 5 21
e 5 27
e 5 32
e 5 35
e 5 37
e 5 39
e 5 44
e 5 45
e 5 51
e 5 59
e 5 64
e 5 66
e 5 75
e 5 87
e 5 91
e 6 8
e 6 9
e 6 11
e 6 13
e 6 14
e 6 15
e 6 17
e 6 18
e 6 23
e 6 32
e 6 34
e 6 38
e 6 39
e 6 41
e 6 48
e 6 50
e 6 54
e 6 58
e 6 69
e 7 9
e 7 10
e 7 12
e 7 16
e 7 19
e 7 20
e 7 23
e 7 26
e 7 35
e 7 39
e 7 50
e 7 53
e 7 56
e 7 58
e 7 63
e 7 66
e 7 89
e 7 91
e 7 92
e 7 100
e 8 13
e 8 14
e 8 16
e 8 27
e 8 30
e 8 32
e 8 35
e 8 36
e 8 42
e 8 50
e 8 55
e 8 65
e 8 73
e 8 81
e 8 82
e 8 94
e 8 95
e 8 99
e 9 10
e 9 11
e 9 14
e 9 15
e 9 18
e 9 20
e 9 27
e 9 37
e 9 40
e 9 47
e 9 49
e 9 63
e 9 64
e 9 85
e 9 91
e 10 13
e 10 25
e 10 32
e 10 34
e 10 46
e 10 48
e 10 51
e 10 59
e 10 67
e 10 71
e 10 79
e 10 87
e 10 90
e 11 15
e 11 16
e 11 17
e 11 21
e 11 25
e 11 38
e 11 43
e 11 48
e 11 50
e 11 59
e 11 72
e 11 79
e 11 88
e 11 93
e 12 21
e 12 22
e 12 28
e 12 29
e 12 36
e 12 43
e 12 45
e 12 47
e 12 53
e 12 56
e 12 89
e 12 93
e 12 99
e 13 14
e 13 18
e 13 19
e 13 33
e 13 34
e 13 40
e 13 42
e 13 46
e 13 48
e 13 51
e 13 68
e 13 74
e 13 76
e 14 17
e 14 21
e 14 31
e 14 44
e 14 45
e 14 68
e 14 75
e 14 86
e 14 90
e 14 95
e 15 21
e 15 22
e 15 27
e 15 31
e 15 36
e 15 38
e 15 41
e 15 72
e 15 98
e 16 29
e 16 31
e 16 36
e 16 39
e 16 70
e 16 74
e 16 75
e 16 77
e 16 89
e 16 93
e 17 23
e 17 51
e 17 52
e 17 54
e 17 60
e 17 66
e 17 76
e 17 79
e 17 84
e 17 86
e 17 93
e 17 97
e 18 35
e 18 55
e 18 59
e 18 60
e 18 73
e 18 77
e 18 78
e 18 82
e 18 83
e 19 25
e 19 28
e 19 38
e 19 40
e 19 44
e 19 49
e 19 58
e 19 62
e 19 89
e 19 98
e 20 22
e 20 25
e 20 39
e 20 46
e 20 47
e 20 49
e 20 71
e 20 85
e 21 23
e 21 28
e 21 29
e 21 33
e 21 44
e 21 78
e 21 95
e 22 23
e 22 43
e 22 47
e 22 57
e 22 58
e 22 82
e 23 24
e 23 40
e 23 66
e 23 72
e 23 90
e 24 33
e 24 46
e 24 48
e 24 63
e 24 69
e 24 70
e 24 77
e 24 99
e 25 26
e 25 27
e 25 32
e 25 42
e 25 52
e 25 61
e 25 97
e 26 41
e 26 53
e 26 64
e 26 65
e 26 83
e 26 95
e 26 97
e 27 28
e 27 64
e 27 70
e 27 80
e 28 30
e 28 31
e 28 57
e 28 99
e 29 64
e 29 82
e 29 85
e 29 95
e 29 96
e 30 35
e 30 39
e 30 48
e 30 52
e 30 67
e 30 76
e 30 99
e 31 46
e 31 77
e 31 78
e 31 84
e 32 33
e 32 69
e 32 81
e 32 92
e 33 54
e 33 63
e 33 68
e 33 70
e 34 48
e 34 60
e 34 91
e 34 96
e 34 98
e 34 100
e 35 37
e 35 68
e 36 52
e 36 70
e 36 80
e 37 55
e 37 57
e 37 60
e 38 45
e 38 57
e 38 62
e 38 81
e 39 55
e 39 63
e 40 41
e 40 65
e 40 88
e 41 67
e 41 83
e 41 100
e 42 84
e 42 93
e 42 97
e 43 46
e 43 78
e 44 59
e 44 87
e 45 61
e 46 78
e 47 52
e 47 60
e 49 88
e 49 92
e 50 68
e 50 76
e 51 58
e 51 79
e 52 61
e 52 69
e 53 82
e 54 80
e 54 98
e 55 83
e 55 87
e 56 66
e 56 94
e 57 88
e 57 96
e 59 65
e 61 85
e 62 67
e 63 94
e 64 81
e 65 90
e 66 81
e 67 69
e 68 86
e 69 86
e 70 100
n 15 1
n 18 1
n 33 1
n 41 1
n 44 3
n 52 1
n 56 3
n 57 2
n 66 3
n 69 1
n 71 3
n 72 1
n 74 1
n 80 1
n 85 3
n 86 1
n 88 2
n 94 3
n 95 2
n 99 2
